(set-info :smt-lib-version 2.6)
(set-info :category "crafted")
(set-logic QF_FFA)
(define-sort FF0 () (_ FiniteField 52435875175126190479447740508185965837690552500527637822603658699938581184513))
(declare-fun _88_alt () FF0)
(declare-fun _87_alt () FF0)
(declare-fun _48_alt () FF0)
(declare-fun _47_alt () FF0)
(declare-fun _86_alt () FF0)
(declare-fun _66_alt () FF0)
(declare-fun _85_alt () FF0)
(declare-fun _64_alt () FF0)
(declare-fun _84_alt () FF0)
(declare-fun _71_alt () FF0)
(declare-fun _83_alt () FF0)
(declare-fun _15_alt () FF0)
(declare-fun _82_alt () FF0)
(declare-fun _78_alt () FF0)
(declare-fun _77_alt () FF0)
(declare-fun _80_alt () FF0)
(declare-fun _34_alt () FF0)
(declare-fun _68_alt () FF0)
(declare-fun _24_alt () FF0)
(declare-fun _57_alt () FF0)
(declare-fun _56_alt () FF0)
(declare-fun _38_alt () FF0)
(declare-fun _73_alt () FF0)
(declare-fun _51_alt () FF0)
(declare-fun _22_alt () FF0)
(declare-fun _70_alt () FF0)
(declare-fun _50_alt () FF0)
(declare-fun _37_alt () FF0)
(declare-fun _65_alt () FF0)
(declare-fun _63_alt () FF0)
(declare-fun _1_alt () FF0)
(declare-fun _62_alt () FF0)
(declare-fun _61_alt () FF0)
(declare-fun _41_alt () FF0)
(declare-fun _60_alt () FF0)
(declare-fun _59_alt () FF0)
(declare-fun _43_alt () FF0)
(declare-fun _33_alt () FF0)
(declare-fun _20_alt () FF0)
(declare-fun _19_alt () FF0)
(declare-fun _3_alt () FF0)
(declare-fun _29_alt () FF0)
(declare-fun _28_alt () FF0)
(declare-fun _40_alt () FF0)
(declare-fun _7_alt () FF0)
(declare-fun _13_alt () FF0)
(declare-fun _12_alt () FF0)
(declare-fun _0_alt () FF0)
(declare-fun _32_alt () FF0)
(declare-fun _2_alt () FF0)
(declare-fun _31_alt () FF0)
(declare-fun _6_alt () FF0)
(declare-fun _23_alt () FF0)
(declare-fun _5_alt () FF0)
(declare-fun _4_alt () FF0)
(declare-fun _88 () FF0)
(declare-fun _87 () FF0)
(declare-fun _48 () FF0)
(declare-fun _47 () FF0)
(declare-fun _86 () FF0)
(declare-fun _66 () FF0)
(declare-fun _85 () FF0)
(declare-fun _64 () FF0)
(declare-fun _84 () FF0)
(declare-fun _71 () FF0)
(declare-fun _83 () FF0)
(declare-fun _15 () FF0)
(declare-fun _82 () FF0)
(declare-fun _78 () FF0)
(declare-fun _77 () FF0)
(declare-fun _80 () FF0)
(declare-fun _34 () FF0)
(declare-fun _68 () FF0)
(declare-fun _24 () FF0)
(declare-fun _57 () FF0)
(declare-fun _56 () FF0)
(declare-fun _38 () FF0)
(declare-fun _73 () FF0)
(declare-fun _51 () FF0)
(declare-fun _22 () FF0)
(declare-fun _70 () FF0)
(declare-fun _50 () FF0)
(declare-fun _37 () FF0)
(declare-fun _65 () FF0)
(declare-fun _63 () FF0)
(declare-fun _1 () FF0)
(declare-fun _62 () FF0)
(declare-fun _61 () FF0)
(declare-fun _41 () FF0)
(declare-fun _60 () FF0)
(declare-fun _59 () FF0)
(declare-fun _43 () FF0)
(declare-fun _33 () FF0)
(declare-fun _20 () FF0)
(declare-fun _19 () FF0)
(declare-fun _3 () FF0)
(declare-fun _29 () FF0)
(declare-fun _28 () FF0)
(declare-fun _40 () FF0)
(declare-fun _7 () FF0)
(declare-fun _13 () FF0)
(declare-fun _12 () FF0)
(declare-fun _0 () FF0)
(declare-fun _32 () FF0)
(declare-fun _2 () FF0)
(declare-fun _31 () FF0)
(declare-fun _6 () FF0)
(declare-fun _23 () FF0)
(declare-fun _5 () FF0)
(declare-fun _4 () FF0)
(declare-fun out_alt () FF0)
(declare-fun out () FF0)
(assert 
  (let ((let0 (as ff52435875175126190479447740508185965837690552500527637822603658699938581184512 FF0)))
  (let ((let1 _88_alt))
  (let ((let2 (ff.mul let1 let0)))
  (let ((let3 _87_alt))
  (let ((let4 _48_alt))
  (let ((let5 _47_alt))
  (let ((let6 (ff.add let5 let4 let3 let2)))
  (let ((let7 (ff.add let5 let4)))
  (let ((let8 (ff.mul let3 let7)))
  (let ((let9 (= let8 let6)))
  (let ((let10 (ff.mul let3 let0)))
  (let ((let11 _86_alt))
  (let ((let12 _66_alt))
  (let ((let13 (ff.add let12 let11 let10)))
  (let ((let14 (ff.mul let11 let12)))
  (let ((let15 (= let14 let13)))
  (let ((let16 (as ff1 FF0)))
  (let ((let17 (ff.mul let11 let0)))
  (let ((let18 _85_alt))
  (let ((let19 _64_alt))
  (let ((let20 (ff.mul let19 let0)))
  (let ((let21 (ff.add let20 let18 let17 let16)))
  (let ((let22 (ff.add let20 let16)))
  (let ((let23 (ff.mul let18 let22)))
  (let ((let24 (= let23 let21)))
  (let ((let25 (ff.mul let18 let0)))
  (let ((let26 _84_alt))
  (let ((let27 _71_alt))
  (let ((let28 (ff.add let27 let26 let25)))
  (let ((let29 (ff.mul let26 let27)))
  (let ((let30 (= let29 let28)))
  (let ((let31 (ff.mul let26 let0)))
  (let ((let32 _83_alt))
  (let ((let33 _15_alt))
  (let ((let34 (ff.add let33 let32 let31)))
  (let ((let35 (ff.mul let32 let33)))
  (let ((let36 (= let35 let34)))
  (let ((let37 (ff.mul let32 let0)))
  (let ((let38 _82_alt))
  (let ((let39 _78_alt))
  (let ((let40 _77_alt))
  (let ((let41 (ff.add let40 let39 let38 let37)))
  (let ((let42 (ff.add let40 let39)))
  (let ((let43 (ff.mul let38 let42)))
  (let ((let44 (= let43 let41)))
  (let ((let45 (ff.mul let38 let0)))
  (let ((let46 _80_alt))
  (let ((let47 _34_alt))
  (let ((let48 (ff.mul let47 let0)))
  (let ((let49 (ff.add let48 let46 let45 let16)))
  (let ((let50 (ff.add let48 let16)))
  (let ((let51 (ff.mul let50 let46)))
  (let ((let52 (= let51 let49)))
  (let ((let53 (ff.mul let46 let0)))
  (let ((let54 _68_alt))
  (let ((let55 (ff.mul let54 let0)))
  (let ((let56 _24_alt))
  (let ((let57 (ff.add let56 let55 let53 let16)))
  (let ((let58 (ff.add let55 let16)))
  (let ((let59 (ff.mul let58 let56)))
  (let ((let60 (= let59 let57)))
  (let ((let61 _57_alt))
  (let ((let62 _56_alt))
  (let ((let63 (ff.add let62 let61)))
  (let ((let64 _38_alt))
  (let ((let65 (ff.mul let64 let63)))
  (let ((let66 (= let65 let39)))
  (let ((let67 _73_alt))
  (let ((let68 (ff.mul let64 let0)))
  (let ((let69 (ff.add let68 let16)))
  (let ((let70 (ff.mul let69 let67)))
  (let ((let71 (= let70 let40)))
  (let ((let72 (as ff2 FF0)))
  (let ((let73 (ff.mul let67 let0)))
  (let ((let74 _51_alt))
  (let ((let75 (ff.mul let74 let0)))
  (let ((let76 _22_alt))
  (let ((let77 (ff.mul let76 let0)))
  (let ((let78 (ff.add let77 let75 let73 let72)))
  (let ((let79 (ff.add let75 let16)))
  (let ((let80 (ff.add let77 let16)))
  (let ((let81 (ff.mul let80 let79)))
  (let ((let82 (= let81 let78)))
  (let ((let83 (ff.mul let27 let0)))
  (let ((let84 _70_alt))
  (let ((let85 _50_alt))
  (let ((let86 (ff.add let85 let84 let83)))
  (let ((let87 (ff.mul let84 let85)))
  (let ((let88 (= let87 let86)))
  (let ((let89 (ff.mul let84 let0)))
  (let ((let90 (ff.mul let33 let0)))
  (let ((let91 (ff.add let90 let54 let89 let16)))
  (let ((let92 (ff.add let90 let16)))
  (let ((let93 (ff.mul let92 let54)))
  (let ((let94 (= let93 let91)))
  (let ((let95 _37_alt))
  (let ((let96 (ff.add let95 let64 let55)))
  (let ((let97 (ff.mul let64 let95)))
  (let ((let98 (= let97 let96)))
  (let ((let99 _65_alt))
  (let ((let100 (ff.mul let99 let19)))
  (let ((let101 (= let100 let12)))
  (let ((let102 (ff.mul let19 let76)))
  (let ((let103 (= let102 let99)))
  (let ((let104 _63_alt))
  (let ((let105 _1_alt))
  (let ((let106 (ff.add let105 let104 let20)))
  (let ((let107 (ff.mul let104 let105)))
  (let ((let108 (= let107 let106)))
  (let ((let109 (ff.mul let104 let0)))
  (let ((let110 _62_alt))
  (let ((let111 (ff.add let85 let110 let109)))
  (let ((let112 (ff.mul let110 let85)))
  (let ((let113 (= let112 let111)))
  (let ((let114 (ff.mul let110 let0)))
  (let ((let115 _61_alt))
  (let ((let116 _41_alt))
  (let ((let117 (ff.mul let116 let0)))
  (let ((let118 (ff.add let117 let115 let114 let16)))
  (let ((let119 (ff.add let117 let16)))
  (let ((let120 (ff.mul let115 let119)))
  (let ((let121 (= let120 let118)))
  (let ((let122 (ff.mul let115 let0)))
  (let ((let123 _60_alt))
  (let ((let124 (ff.add let117 let123 let122 let16)))
  (let ((let125 (ff.mul let123 let119)))
  (let ((let126 (= let125 let124)))
  (let ((let127 (ff.mul let123 let0)))
  (let ((let128 _59_alt))
  (let ((let129 (ff.add let48 let128 let127 let16)))
  (let ((let130 (ff.mul let128 let50)))
  (let ((let131 (= let130 let129)))
  (let ((let132 (ff.mul let128 let0)))
  (let ((let133 _43_alt))
  (let ((let134 (ff.add let133 let62 let61 let132)))
  (let ((let135 (ff.mul let63 let133)))
  (let ((let136 (= let135 let134)))
  (let ((let137 _33_alt))
  (let ((let138 (ff.mul let85 let0)))
  (let ((let139 (ff.add let138 let16)))
  (let ((let140 (ff.mul let139 let137)))
  (let ((let141 (= let140 let61)))
  (let ((let142 (ff.mul let85 let79)))
  (let ((let143 (= let142 let62)))
  (let ((let144 _20_alt))
  (let ((let145 _19_alt))
  (let ((let146 _3_alt))
  (let ((let147 (ff.mul let146 let0)))
  (let ((let148 (ff.add let147 let145 let144)))
  (let ((let149 (ff.mul let148 let148)))
  (let ((let150 (= let149 let74)))
  (let ((let151 _29_alt))
  (let ((let152 (ff.mul let151 let0)))
  (let ((let153 _28_alt))
  (let ((let154 (ff.mul let153 let0)))
  (let ((let155 (ff.add let154 let152 let137 let138 let16)))
  (let ((let156 (ff.add let154 let152 let16)))
  (let ((let157 (ff.mul let156 let137)))
  (let ((let158 (= let157 let155)))
  (let ((let159 (ff.mul let133 let0)))
  (let ((let160 (ff.add let159 let16)))
  (let ((let161 (ff.mul let160 let95)))
  (let ((let162 (= let161 let4)))
  (let ((let163 (ff.mul let133 let119)))
  (let ((let164 (= let163 let5)))
  (let ((let165 (ff.add let48 let95 let159 let16)))
  (let ((let166 (ff.mul let50 let95)))
  (let ((let167 (= let166 let165)))
  (let ((let168 _40_alt))
  (let ((let169 _7_alt))
  (let ((let170 (ff.add let169 let168 let0)))
  (let ((let171 (ff.mul let170 let170)))
  (let ((let172 (= let171 let116)))
  (let ((let173 (ff.mul let168 let0)))
  (let ((let174 _13_alt))
  (let ((let175 _12_alt))
  (let ((let176 (ff.add let175 let174 let64 let173)))
  (let ((let177 (ff.add let175 let174)))
  (let ((let178 (ff.mul let64 let177)))
  (let ((let179 (= let178 let176)))
  (let ((let180 (ff.mul let169 let0)))
  (let ((let181 _0_alt))
  (let ((let182 (ff.mul let181 let0)))
  (let ((let183 (ff.add let182 let180 let16)))
  (let ((let184 (ff.mul let183 let183)))
  (let ((let185 (= let184 let64)))
  (let ((let186 (ff.mul let95 let0)))
  (let ((let187 (ff.add let76 let48 let186 let16)))
  (let ((let188 (ff.mul let50 let76)))
  (let ((let189 (= let188 let187)))
  (let ((let190 (ff.add let90 let137)))
  (let ((let191 (ff.mul let190 let190)))
  (let ((let192 (= let191 let47)))
  (let ((let193 (ff.mul let137 let0)))
  (let ((let194 _32_alt))
  (let ((let195 _2_alt))
  (let ((let196 (ff.add let195 let194 let193)))
  (let ((let197 (ff.mul let194 let195)))
  (let ((let198 (= let197 let196)))
  (let ((let199 (ff.mul let194 let0)))
  (let ((let200 _31_alt))
  (let ((let201 (ff.add let56 let200 let199)))
  (let ((let202 (ff.mul let200 let56)))
  (let ((let203 (= let202 let201)))
  (let ((let204 (ff.mul let200 let0)))
  (let ((let205 (ff.mul let151 let72)))
  (let ((let206 (ff.mul let153 let72)))
  (let ((let207 (ff.add let206 let205 let204)))
  (let ((let208 (ff.add let153 let151)))
  (let ((let209 (ff.mul let208 let208)))
  (let ((let210 (= let209 let207)))
  (let ((let211 (ff.mul let56 let0)))
  (let ((let212 (ff.add let211 let16)))
  (let ((let213 (ff.mul let212 let105)))
  (let ((let214 (= let213 let151)))
  (let ((let215 _6_alt))
  (let ((let216 (ff.mul let56 let215)))
  (let ((let217 (= let216 let153)))
  (let ((let218 _23_alt))
  (let ((let219 (ff.add let181 let218 let211)))
  (let ((let220 (ff.mul let218 let181)))
  (let ((let221 (= let220 let219)))
  (let ((let222 (ff.mul let218 let0)))
  (let ((let223 (ff.add let146 let145 let144 let222)))
  (let ((let224 (ff.add let145 let144)))
  (let ((let225 (ff.mul let224 let146)))
  (let ((let226 (= let225 let223)))
  (let ((let227 (ff.mul let144 let0)))
  (let ((let228 (ff.mul let145 let0)))
  (let ((let229 (ff.add let146 let228 let227 let77 let16)))
  (let ((let230 (ff.add let228 let227 let16)))
  (let ((let231 (ff.mul let230 let146)))
  (let ((let232 (= let231 let229)))
  (let ((let233 (ff.mul let92 let33)))
  (let ((let234 (= let233 let144)))
  (let ((let235 (ff.mul let33 let177)))
  (let ((let236 (= let235 let145)))
  (let ((let237 (ff.add let180 let175 let174 let90 let16)))
  (let ((let238 (ff.add let180 let16)))
  (let ((let239 (ff.mul let177 let238)))
  (let ((let240 (= let239 let237)))
  (let ((let241 (ff.add let147 let16)))
  (let ((let242 (ff.mul let241 let195)))
  (let ((let243 (= let242 let174)))
  (let ((let244 (ff.mul let146 let215)))
  (let ((let245 (= let244 let175)))
  (let ((let246 (ff.mul let215 let0)))
  (let ((let247 (ff.add let105 let246)))
  (let ((let248 (ff.mul let247 let247)))
  (let ((let249 (= let248 let169)))
  (let ((let250 _5_alt))
  (let ((let251 (ff.mul let250 let181)))
  (let ((let252 (= let251 let215)))
  (let ((let253 _4_alt))
  (let ((let254 (ff.mul let253 let195)))
  (let ((let255 (= let254 let250)))
  (let ((let256 (ff.mul let105 let181)))
  (let ((let257 (= let256 let253)))
  (let ((let258 (ff.mul let146 let146)))
  (let ((let259 (= let258 let146)))
  (let ((let260 (ff.mul let195 let195)))
  (let ((let261 (= let260 let195)))
  (let ((let262 (ff.mul let105 let105)))
  (let ((let263 (= let262 let105)))
  (let ((let264 (ff.mul let181 let181)))
  (let ((let265 (= let264 let181)))
  (let ((let266 (and let265 let263 let261 let259 let257 let255 let252 let249 let245 let243 let240 let236 let234 let232 let226 let221 let217 let214 let210 let203 let198 let192 let189 let185 let179 let172 let167 let164 let162 let158 let150 let143 let141 let136 let131 let126 let121 let113 let108 let103 let101 let98 let94 let88 let82 let71 let66 let60 let52 let44 let36 let30 let24 let15 let9)))
  (let ((let267 _88))
  (let ((let268 (ff.mul let267 let0)))
  (let ((let269 _87))
  (let ((let270 _48))
  (let ((let271 _47))
  (let ((let272 (ff.add let271 let270 let269 let268)))
  (let ((let273 (ff.add let271 let270)))
  (let ((let274 (ff.mul let269 let273)))
  (let ((let275 (= let274 let272)))
  (let ((let276 (ff.mul let269 let0)))
  (let ((let277 _86))
  (let ((let278 _66))
  (let ((let279 (ff.add let278 let277 let276)))
  (let ((let280 (ff.mul let277 let278)))
  (let ((let281 (= let280 let279)))
  (let ((let282 (ff.mul let277 let0)))
  (let ((let283 _85))
  (let ((let284 _64))
  (let ((let285 (ff.mul let284 let0)))
  (let ((let286 (ff.add let285 let283 let282 let16)))
  (let ((let287 (ff.add let285 let16)))
  (let ((let288 (ff.mul let283 let287)))
  (let ((let289 (= let288 let286)))
  (let ((let290 (ff.mul let283 let0)))
  (let ((let291 _84))
  (let ((let292 _71))
  (let ((let293 (ff.add let292 let291 let290)))
  (let ((let294 (ff.mul let291 let292)))
  (let ((let295 (= let294 let293)))
  (let ((let296 (ff.mul let291 let0)))
  (let ((let297 _83))
  (let ((let298 _15))
  (let ((let299 (ff.add let298 let297 let296)))
  (let ((let300 (ff.mul let297 let298)))
  (let ((let301 (= let300 let299)))
  (let ((let302 (ff.mul let297 let0)))
  (let ((let303 _82))
  (let ((let304 _78))
  (let ((let305 _77))
  (let ((let306 (ff.add let305 let304 let303 let302)))
  (let ((let307 (ff.add let305 let304)))
  (let ((let308 (ff.mul let303 let307)))
  (let ((let309 (= let308 let306)))
  (let ((let310 (ff.mul let303 let0)))
  (let ((let311 _80))
  (let ((let312 _34))
  (let ((let313 (ff.mul let312 let0)))
  (let ((let314 (ff.add let313 let311 let310 let16)))
  (let ((let315 (ff.add let313 let16)))
  (let ((let316 (ff.mul let315 let311)))
  (let ((let317 (= let316 let314)))
  (let ((let318 (ff.mul let311 let0)))
  (let ((let319 _68))
  (let ((let320 (ff.mul let319 let0)))
  (let ((let321 _24))
  (let ((let322 (ff.add let321 let320 let318 let16)))
  (let ((let323 (ff.add let320 let16)))
  (let ((let324 (ff.mul let323 let321)))
  (let ((let325 (= let324 let322)))
  (let ((let326 _57))
  (let ((let327 _56))
  (let ((let328 (ff.add let327 let326)))
  (let ((let329 _38))
  (let ((let330 (ff.mul let329 let328)))
  (let ((let331 (= let330 let304)))
  (let ((let332 _73))
  (let ((let333 (ff.mul let329 let0)))
  (let ((let334 (ff.add let333 let16)))
  (let ((let335 (ff.mul let334 let332)))
  (let ((let336 (= let335 let305)))
  (let ((let337 (ff.mul let332 let0)))
  (let ((let338 _51))
  (let ((let339 (ff.mul let338 let0)))
  (let ((let340 _22))
  (let ((let341 (ff.mul let340 let0)))
  (let ((let342 (ff.add let341 let339 let337 let72)))
  (let ((let343 (ff.add let339 let16)))
  (let ((let344 (ff.add let341 let16)))
  (let ((let345 (ff.mul let344 let343)))
  (let ((let346 (= let345 let342)))
  (let ((let347 (ff.mul let292 let0)))
  (let ((let348 _70))
  (let ((let349 _50))
  (let ((let350 (ff.add let349 let348 let347)))
  (let ((let351 (ff.mul let348 let349)))
  (let ((let352 (= let351 let350)))
  (let ((let353 (ff.mul let348 let0)))
  (let ((let354 (ff.mul let298 let0)))
  (let ((let355 (ff.add let354 let319 let353 let16)))
  (let ((let356 (ff.add let354 let16)))
  (let ((let357 (ff.mul let356 let319)))
  (let ((let358 (= let357 let355)))
  (let ((let359 _37))
  (let ((let360 (ff.add let359 let329 let320)))
  (let ((let361 (ff.mul let329 let359)))
  (let ((let362 (= let361 let360)))
  (let ((let363 _65))
  (let ((let364 (ff.mul let363 let284)))
  (let ((let365 (= let364 let278)))
  (let ((let366 (ff.mul let284 let340)))
  (let ((let367 (= let366 let363)))
  (let ((let368 _63))
  (let ((let369 _1))
  (let ((let370 (ff.add let369 let368 let285)))
  (let ((let371 (ff.mul let368 let369)))
  (let ((let372 (= let371 let370)))
  (let ((let373 (ff.mul let368 let0)))
  (let ((let374 _62))
  (let ((let375 (ff.add let349 let374 let373)))
  (let ((let376 (ff.mul let374 let349)))
  (let ((let377 (= let376 let375)))
  (let ((let378 (ff.mul let374 let0)))
  (let ((let379 _61))
  (let ((let380 _41))
  (let ((let381 (ff.mul let380 let0)))
  (let ((let382 (ff.add let381 let379 let378 let16)))
  (let ((let383 (ff.add let381 let16)))
  (let ((let384 (ff.mul let379 let383)))
  (let ((let385 (= let384 let382)))
  (let ((let386 (ff.mul let379 let0)))
  (let ((let387 _60))
  (let ((let388 (ff.add let381 let387 let386 let16)))
  (let ((let389 (ff.mul let387 let383)))
  (let ((let390 (= let389 let388)))
  (let ((let391 (ff.mul let387 let0)))
  (let ((let392 _59))
  (let ((let393 (ff.add let313 let392 let391 let16)))
  (let ((let394 (ff.mul let392 let315)))
  (let ((let395 (= let394 let393)))
  (let ((let396 (ff.mul let392 let0)))
  (let ((let397 _43))
  (let ((let398 (ff.add let397 let327 let326 let396)))
  (let ((let399 (ff.mul let328 let397)))
  (let ((let400 (= let399 let398)))
  (let ((let401 _33))
  (let ((let402 (ff.mul let349 let0)))
  (let ((let403 (ff.add let402 let16)))
  (let ((let404 (ff.mul let403 let401)))
  (let ((let405 (= let404 let326)))
  (let ((let406 (ff.mul let349 let343)))
  (let ((let407 (= let406 let327)))
  (let ((let408 _20))
  (let ((let409 _19))
  (let ((let410 _3))
  (let ((let411 (ff.mul let410 let0)))
  (let ((let412 (ff.add let411 let409 let408)))
  (let ((let413 (ff.mul let412 let412)))
  (let ((let414 (= let413 let338)))
  (let ((let415 _29))
  (let ((let416 (ff.mul let415 let0)))
  (let ((let417 _28))
  (let ((let418 (ff.mul let417 let0)))
  (let ((let419 (ff.add let418 let416 let401 let402 let16)))
  (let ((let420 (ff.add let418 let416 let16)))
  (let ((let421 (ff.mul let420 let401)))
  (let ((let422 (= let421 let419)))
  (let ((let423 (ff.mul let397 let0)))
  (let ((let424 (ff.add let423 let16)))
  (let ((let425 (ff.mul let424 let359)))
  (let ((let426 (= let425 let270)))
  (let ((let427 (ff.mul let397 let383)))
  (let ((let428 (= let427 let271)))
  (let ((let429 (ff.add let313 let359 let423 let16)))
  (let ((let430 (ff.mul let315 let359)))
  (let ((let431 (= let430 let429)))
  (let ((let432 _40))
  (let ((let433 _7))
  (let ((let434 (ff.add let433 let432 let0)))
  (let ((let435 (ff.mul let434 let434)))
  (let ((let436 (= let435 let380)))
  (let ((let437 (ff.mul let432 let0)))
  (let ((let438 _13))
  (let ((let439 _12))
  (let ((let440 (ff.add let439 let438 let329 let437)))
  (let ((let441 (ff.add let439 let438)))
  (let ((let442 (ff.mul let329 let441)))
  (let ((let443 (= let442 let440)))
  (let ((let444 (ff.mul let433 let0)))
  (let ((let445 _0))
  (let ((let446 (ff.mul let445 let0)))
  (let ((let447 (ff.add let446 let444 let16)))
  (let ((let448 (ff.mul let447 let447)))
  (let ((let449 (= let448 let329)))
  (let ((let450 (ff.mul let359 let0)))
  (let ((let451 (ff.add let340 let313 let450 let16)))
  (let ((let452 (ff.mul let315 let340)))
  (let ((let453 (= let452 let451)))
  (let ((let454 (ff.add let354 let401)))
  (let ((let455 (ff.mul let454 let454)))
  (let ((let456 (= let455 let312)))
  (let ((let457 (ff.mul let401 let0)))
  (let ((let458 _32))
  (let ((let459 _2))
  (let ((let460 (ff.add let459 let458 let457)))
  (let ((let461 (ff.mul let458 let459)))
  (let ((let462 (= let461 let460)))
  (let ((let463 (ff.mul let458 let0)))
  (let ((let464 _31))
  (let ((let465 (ff.add let321 let464 let463)))
  (let ((let466 (ff.mul let464 let321)))
  (let ((let467 (= let466 let465)))
  (let ((let468 (ff.mul let464 let0)))
  (let ((let469 (ff.mul let415 let72)))
  (let ((let470 (ff.mul let417 let72)))
  (let ((let471 (ff.add let470 let469 let468)))
  (let ((let472 (ff.add let417 let415)))
  (let ((let473 (ff.mul let472 let472)))
  (let ((let474 (= let473 let471)))
  (let ((let475 (ff.mul let321 let0)))
  (let ((let476 (ff.add let475 let16)))
  (let ((let477 (ff.mul let476 let369)))
  (let ((let478 (= let477 let415)))
  (let ((let479 _6))
  (let ((let480 (ff.mul let321 let479)))
  (let ((let481 (= let480 let417)))
  (let ((let482 _23))
  (let ((let483 (ff.add let445 let482 let475)))
  (let ((let484 (ff.mul let482 let445)))
  (let ((let485 (= let484 let483)))
  (let ((let486 (ff.mul let482 let0)))
  (let ((let487 (ff.add let410 let409 let408 let486)))
  (let ((let488 (ff.add let409 let408)))
  (let ((let489 (ff.mul let488 let410)))
  (let ((let490 (= let489 let487)))
  (let ((let491 (ff.mul let408 let0)))
  (let ((let492 (ff.mul let409 let0)))
  (let ((let493 (ff.add let410 let492 let491 let341 let16)))
  (let ((let494 (ff.add let492 let491 let16)))
  (let ((let495 (ff.mul let494 let410)))
  (let ((let496 (= let495 let493)))
  (let ((let497 (ff.mul let356 let298)))
  (let ((let498 (= let497 let408)))
  (let ((let499 (ff.mul let298 let441)))
  (let ((let500 (= let499 let409)))
  (let ((let501 (ff.add let444 let439 let438 let354 let16)))
  (let ((let502 (ff.add let444 let16)))
  (let ((let503 (ff.mul let441 let502)))
  (let ((let504 (= let503 let501)))
  (let ((let505 (ff.add let411 let16)))
  (let ((let506 (ff.mul let505 let459)))
  (let ((let507 (= let506 let438)))
  (let ((let508 (ff.mul let410 let479)))
  (let ((let509 (= let508 let439)))
  (let ((let510 (ff.mul let479 let0)))
  (let ((let511 (ff.add let369 let510)))
  (let ((let512 (ff.mul let511 let511)))
  (let ((let513 (= let512 let433)))
  (let ((let514 _5))
  (let ((let515 (ff.mul let514 let445)))
  (let ((let516 (= let515 let479)))
  (let ((let517 _4))
  (let ((let518 (ff.mul let517 let459)))
  (let ((let519 (= let518 let514)))
  (let ((let520 (ff.mul let369 let445)))
  (let ((let521 (= let520 let517)))
  (let ((let522 (ff.mul let410 let410)))
  (let ((let523 (= let522 let410)))
  (let ((let524 (ff.mul let459 let459)))
  (let ((let525 (= let524 let459)))
  (let ((let526 (ff.mul let369 let369)))
  (let ((let527 (= let526 let369)))
  (let ((let528 (ff.mul let445 let445)))
  (let ((let529 (= let528 let445)))
  (let ((let530 (and let529 let527 let525 let523 let521 let519 let516 let513 let509 let507 let504 let500 let498 let496 let490 let485 let481 let478 let474 let467 let462 let456 let453 let449 let443 let436 let431 let428 let426 let422 let414 let407 let405 let400 let395 let390 let385 let377 let372 let367 let365 let362 let358 let352 let346 let336 let331 let325 let317 let309 let301 let295 let289 let281 let275)))
  (let ((let531 out_alt))
  (let ((let532 out))
  (let ((let533 (= let532 let531)))
  (let ((let534 (not let533)))
  (let ((let535 (= let445 let181)))
  (let ((let536 (= let369 let105)))
  (let ((let537 (= let459 let195)))
  (let ((let538 (= let410 let146)))
  (let ((let539 (and let538 let537 let536 let535)))
  (let ((let540 (and let539 let534 let530 let266)))
  let540
)))))))))))))))))))))))))))))))))))))))))))))))))))))))))))))))))))))))))))))))))))))))))))))))))))))))))))))))))))))))))))))))))))))))))))))))))))))))))))))))))))))))))))))))))))))))))))))))))))))))))))))))))))))))))))))))))))))))))))))))))))))))))))))))))))))))))))))))))))))))))))))))))))))))))))))))))))))))))))))))))))))))))))))))))))))))))))))))))))))))))))))))))))))))))))))))))))))))))))))))))))))))))))))))))))))))))))))))))))))))))))))))))))))))))))))))))))))))))))))))))))))))))))))))))))))))))))))))))))))))))))))))))))))))))))))
)
(check-sat)
